sat
(:max-memory                   18.16
 :memory                       18.06
 :nlsat-conflicts              7
 :nlsat-decisions              1
 :nlsat-irrational-assignments 1
 :nlsat-propagations           40
 :nlsat-stages                 11
 :num-allocs                   42157
 :rlimit-count                 4098
 :time                         0.00
 :total-time                   0.01)
